letting n =  10
letting blocks =  [[1, 7], [1, 10], [2, 3], [2, 10], [3, 1], [3, 3], [3, 5], [3, 8], [3, 10], [4, 1], [4, 3], [4, 6], [4, 7], [4, 9], [4, 10], [5, 6], [5, 9], [6, 2], [6, 3], [6, 7], [6, 9], [7, 3], [7, 6], [7, 8], [7, 9], [8, 1], [8, 3], [8, 6], [8, 7], [8, 8], [9, 2], [9, 4], [9, 5], [9, 6], [9, 7], [9, 10], [10, 4], [10, 5], [10, 6], [10, 7], [10, 8], [10, 10]]
